
(set-option :produce-models true)
(set-option :inline-size-limit 10000)

(declare-const var0 String)

(push 1)
(assert (str.in.re var0 (re.* (re.range "\x01" "\xff"))))
(assert (str.in.re var0 (re.union (re.union (re.++ re.begin-anchor (re.++ (re.opt ((_ re.capture 1) (re.++ (str.to.re "G") (str.to.re "B")))) (re.++ (re.opt ((_ re.capture 2) (str.to.re " "))) (re.++ (re.range "0" "9") (re.++ ((_ re.loop 0 2) (re.range "0" "9")) (re.++ (re.opt ((_ re.capture 3) (str.to.re " "))) (re.++ (re.range "0" "9") (re.++ ((_ re.loop 0 3) (re.range "0" "9")) (re.++ (re.opt ((_ re.capture 4) (str.to.re " "))) (re.++ ((_ re.capture 5) (re.union (re.union (re.++ (str.to.re "0") (re.range "0" "9")) (re.++ (re.range "1" "8") (re.range "0" "9"))) (re.++ (str.to.re "9") (re.range "0" "6")))) (re.++ (re.opt ((_ re.capture 6) (str.to.re " "))) (re.++ (re.opt ((_ re.capture 7) (re.++ (re.range "0" "9") ((_ re.loop 0 2) (re.range "0" "9"))))) re.all)))))))))))) (re.++ (re.++ (re.*? re.allchar) (re.opt ((_ re.capture 8) (re.++ (str.to.re "G") (str.to.re "B"))))) (re.++ (re.opt ((_ re.capture 9) (str.to.re " "))) (re.++ (str.to.re "G") (re.++ (str.to.re "D") (re.++ (re.opt ((_ re.capture 10) (str.to.re " "))) (re.++ ((_ re.capture 11) (re.++ (re.range "0" "4") (re.++ (re.range "0" "9") (re.range "0" "9")))) re.all))))))) (re.++ (re.++ (re.++ (re.*? re.allchar) (re.opt ((_ re.capture 12) (re.++ (str.to.re "G") (str.to.re "B"))))) (re.++ (re.opt ((_ re.capture 13) (str.to.re " "))) (re.++ (str.to.re "H") (re.++ (str.to.re "A") (re.++ (re.opt ((_ re.capture 14) (str.to.re " "))) ((_ re.capture 15) (re.++ (re.range "5" "9") (re.++ (re.range "0" "9") (re.range "0" "9"))))))))) re.end-anchor))))	; match!==null
(assert (not (str.in.re ((_ str.extract 1) var0 (re.union (re.union (re.++ re.begin-anchor (re.++ (re.opt ((_ re.capture 1) (re.++ (str.to.re "G") (str.to.re "B")))) (re.++ (re.opt ((_ re.capture 2) (str.to.re " "))) (re.++ (re.range "0" "9") (re.++ ((_ re.loop 0 2) (re.range "0" "9")) (re.++ (re.opt ((_ re.capture 3) (str.to.re " "))) (re.++ (re.range "0" "9") (re.++ ((_ re.loop 0 3) (re.range "0" "9")) (re.++ (re.opt ((_ re.capture 4) (str.to.re " "))) (re.++ ((_ re.capture 5) (re.union (re.union (re.++ (str.to.re "0") (re.range "0" "9")) (re.++ (re.range "1" "8") (re.range "0" "9"))) (re.++ (str.to.re "9") (re.range "0" "6")))) (re.++ (re.opt ((_ re.capture 6) (str.to.re " "))) (re.++ (re.opt ((_ re.capture 7) (re.++ (re.range "0" "9") ((_ re.loop 0 2) (re.range "0" "9"))))) re.all)))))))))))) (re.++ (re.++ (re.*? re.allchar) (re.opt ((_ re.capture 8) (re.++ (str.to.re "G") (str.to.re "B"))))) (re.++ (re.opt ((_ re.capture 9) (str.to.re " "))) (re.++ (str.to.re "G") (re.++ (str.to.re "D") (re.++ (re.opt ((_ re.capture 10) (str.to.re " "))) (re.++ ((_ re.capture 11) (re.++ (re.range "0" "4") (re.++ (re.range "0" "9") (re.range "0" "9")))) re.all))))))) (re.++ (re.++ (re.++ (re.*? re.allchar) (re.opt ((_ re.capture 12) (re.++ (str.to.re "G") (str.to.re "B"))))) (re.++ (re.opt ((_ re.capture 13) (str.to.re " "))) (re.++ (str.to.re "H") (re.++ (str.to.re "A") (re.++ (re.opt ((_ re.capture 14) (str.to.re " "))) ((_ re.capture 15) (re.++ (re.range "5" "9") (re.++ (re.range "0" "9") (re.range "0" "9"))))))))) re.end-anchor))) (str.to.re "\x00"))))
;match[1]!==null
(assert (str.in.re ((_ str.extract 1) var0 (re.union (re.union (re.++ re.begin-anchor (re.++ (re.opt ((_ re.capture 1) (re.++ (str.to.re "G") (str.to.re "B")))) (re.++ (re.opt ((_ re.capture 2) (str.to.re " "))) (re.++ (re.range "0" "9") (re.++ ((_ re.loop 0 2) (re.range "0" "9")) (re.++ (re.opt ((_ re.capture 3) (str.to.re " "))) (re.++ (re.range "0" "9") (re.++ ((_ re.loop 0 3) (re.range "0" "9")) (re.++ (re.opt ((_ re.capture 4) (str.to.re " "))) (re.++ ((_ re.capture 5) (re.union (re.union (re.++ (str.to.re "0") (re.range "0" "9")) (re.++ (re.range "1" "8") (re.range "0" "9"))) (re.++ (str.to.re "9") (re.range "0" "6")))) (re.++ (re.opt ((_ re.capture 6) (str.to.re " "))) (re.++ (re.opt ((_ re.capture 7) (re.++ (re.range "0" "9") ((_ re.loop 0 2) (re.range "0" "9"))))) re.all)))))))))))) (re.++ (re.++ (re.*? re.allchar) (re.opt ((_ re.capture 8) (re.++ (str.to.re "G") (str.to.re "B"))))) (re.++ (re.opt ((_ re.capture 9) (str.to.re " "))) (re.++ (str.to.re "G") (re.++ (str.to.re "D") (re.++ (re.opt ((_ re.capture 10) (str.to.re " "))) (re.++ ((_ re.capture 11) (re.++ (re.range "0" "4") (re.++ (re.range "0" "9") (re.range "0" "9")))) re.all))))))) (re.++ (re.++ (re.++ (re.*? re.allchar) (re.opt ((_ re.capture 12) (re.++ (str.to.re "G") (str.to.re "B"))))) (re.++ (re.opt ((_ re.capture 13) (str.to.re " "))) (re.++ (str.to.re "H") (re.++ (str.to.re "A") (re.++ (re.opt ((_ re.capture 14) (str.to.re " "))) ((_ re.capture 15) (re.++ (re.range "5" "9") (re.++ (re.range "0" "9") (re.range "0" "9"))))))))) re.end-anchor))) (re.++ re.all(re.+ (re.range "a" "z")) re.all) ))
;/[a-z]+/.test(match[1]) == true
(check-sat)
(get-model)
(pop 1)
(push 1)
(assert (str.in.re var0 (re.* (re.range "\x01" "\xff"))))
(assert (str.in.re var0 (re.union (re.union (re.++ re.begin-anchor (re.++ (re.opt ((_ re.capture 1) (re.++ (str.to.re "G") (str.to.re "B")))) (re.++ (re.opt ((_ re.capture 2) (str.to.re " "))) (re.++ (re.range "0" "9") (re.++ ((_ re.loop 0 2) (re.range "0" "9")) (re.++ (re.opt ((_ re.capture 3) (str.to.re " "))) (re.++ (re.range "0" "9") (re.++ ((_ re.loop 0 3) (re.range "0" "9")) (re.++ (re.opt ((_ re.capture 4) (str.to.re " "))) (re.++ ((_ re.capture 5) (re.union (re.union (re.++ (str.to.re "0") (re.range "0" "9")) (re.++ (re.range "1" "8") (re.range "0" "9"))) (re.++ (str.to.re "9") (re.range "0" "6")))) (re.++ (re.opt ((_ re.capture 6) (str.to.re " "))) (re.++ (re.opt ((_ re.capture 7) (re.++ (re.range "0" "9") ((_ re.loop 0 2) (re.range "0" "9"))))) re.all)))))))))))) (re.++ (re.++ (re.*? re.allchar) (re.opt ((_ re.capture 8) (re.++ (str.to.re "G") (str.to.re "B"))))) (re.++ (re.opt ((_ re.capture 9) (str.to.re " "))) (re.++ (str.to.re "G") (re.++ (str.to.re "D") (re.++ (re.opt ((_ re.capture 10) (str.to.re " "))) (re.++ ((_ re.capture 11) (re.++ (re.range "0" "4") (re.++ (re.range "0" "9") (re.range "0" "9")))) re.all))))))) (re.++ (re.++ (re.++ (re.*? re.allchar) (re.opt ((_ re.capture 12) (re.++ (str.to.re "G") (str.to.re "B"))))) (re.++ (re.opt ((_ re.capture 13) (str.to.re " "))) (re.++ (str.to.re "H") (re.++ (str.to.re "A") (re.++ (re.opt ((_ re.capture 14) (str.to.re " "))) ((_ re.capture 15) (re.++ (re.range "5" "9") (re.++ (re.range "0" "9") (re.range "0" "9"))))))))) re.end-anchor))))	; match!==null
(assert (not (str.in.re ((_ str.extract 1) var0 (re.union (re.union (re.++ re.begin-anchor (re.++ (re.opt ((_ re.capture 1) (re.++ (str.to.re "G") (str.to.re "B")))) (re.++ (re.opt ((_ re.capture 2) (str.to.re " "))) (re.++ (re.range "0" "9") (re.++ ((_ re.loop 0 2) (re.range "0" "9")) (re.++ (re.opt ((_ re.capture 3) (str.to.re " "))) (re.++ (re.range "0" "9") (re.++ ((_ re.loop 0 3) (re.range "0" "9")) (re.++ (re.opt ((_ re.capture 4) (str.to.re " "))) (re.++ ((_ re.capture 5) (re.union (re.union (re.++ (str.to.re "0") (re.range "0" "9")) (re.++ (re.range "1" "8") (re.range "0" "9"))) (re.++ (str.to.re "9") (re.range "0" "6")))) (re.++ (re.opt ((_ re.capture 6) (str.to.re " "))) (re.++ (re.opt ((_ re.capture 7) (re.++ (re.range "0" "9") ((_ re.loop 0 2) (re.range "0" "9"))))) re.all)))))))))))) (re.++ (re.++ (re.*? re.allchar) (re.opt ((_ re.capture 8) (re.++ (str.to.re "G") (str.to.re "B"))))) (re.++ (re.opt ((_ re.capture 9) (str.to.re " "))) (re.++ (str.to.re "G") (re.++ (str.to.re "D") (re.++ (re.opt ((_ re.capture 10) (str.to.re " "))) (re.++ ((_ re.capture 11) (re.++ (re.range "0" "4") (re.++ (re.range "0" "9") (re.range "0" "9")))) re.all))))))) (re.++ (re.++ (re.++ (re.*? re.allchar) (re.opt ((_ re.capture 12) (re.++ (str.to.re "G") (str.to.re "B"))))) (re.++ (re.opt ((_ re.capture 13) (str.to.re " "))) (re.++ (str.to.re "H") (re.++ (str.to.re "A") (re.++ (re.opt ((_ re.capture 14) (str.to.re " "))) ((_ re.capture 15) (re.++ (re.range "5" "9") (re.++ (re.range "0" "9") (re.range "0" "9"))))))))) re.end-anchor))) (str.to.re "\x00"))))	
;match[1]!==null
(assert (not (str.in.re ((_ str.extract 1) var0 (re.union (re.union (re.++ re.begin-anchor (re.++ (re.opt ((_ re.capture 1) (re.++ (str.to.re "G") (str.to.re "B")))) (re.++ (re.opt ((_ re.capture 2) (str.to.re " "))) (re.++ (re.range "0" "9") (re.++ ((_ re.loop 0 2) (re.range "0" "9")) (re.++ (re.opt ((_ re.capture 3) (str.to.re " "))) (re.++ (re.range "0" "9") (re.++ ((_ re.loop 0 3) (re.range "0" "9")) (re.++ (re.opt ((_ re.capture 4) (str.to.re " "))) (re.++ ((_ re.capture 5) (re.union (re.union (re.++ (str.to.re "0") (re.range "0" "9")) (re.++ (re.range "1" "8") (re.range "0" "9"))) (re.++ (str.to.re "9") (re.range "0" "6")))) (re.++ (re.opt ((_ re.capture 6) (str.to.re " "))) (re.++ (re.opt ((_ re.capture 7) (re.++ (re.range "0" "9") ((_ re.loop 0 2) (re.range "0" "9"))))) re.all)))))))))))) (re.++ (re.++ (re.*? re.allchar) (re.opt ((_ re.capture 8) (re.++ (str.to.re "G") (str.to.re "B"))))) (re.++ (re.opt ((_ re.capture 9) (str.to.re " "))) (re.++ (str.to.re "G") (re.++ (str.to.re "D") (re.++ (re.opt ((_ re.capture 10) (str.to.re " "))) (re.++ ((_ re.capture 11) (re.++ (re.range "0" "4") (re.++ (re.range "0" "9") (re.range "0" "9")))) re.all))))))) (re.++ (re.++ (re.++ (re.*? re.allchar) (re.opt ((_ re.capture 12) (re.++ (str.to.re "G") (str.to.re "B"))))) (re.++ (re.opt ((_ re.capture 13) (str.to.re " "))) (re.++ (str.to.re "H") (re.++ (str.to.re "A") (re.++ (re.opt ((_ re.capture 14) (str.to.re " "))) ((_ re.capture 15) (re.++ (re.range "5" "9") (re.++ (re.range "0" "9") (re.range "0" "9"))))))))) re.end-anchor))) (re.++ re.all(re.+ (re.range "a" "z")) re.all) )))
;/[a-z]+/.test(match[1]) == false	
(check-sat)
(get-model)
(pop 1)
(push 1)
(assert (str.in.re var0 (re.* (re.range "\x01" "\xff"))))
(assert (str.in.re var0 (re.union (re.union (re.++ re.begin-anchor (re.++ (re.opt ((_ re.capture 1) (re.++ (str.to.re "G") (str.to.re "B")))) (re.++ (re.opt ((_ re.capture 2) (str.to.re " "))) (re.++ (re.range "0" "9") (re.++ ((_ re.loop 0 2) (re.range "0" "9")) (re.++ (re.opt ((_ re.capture 3) (str.to.re " "))) (re.++ (re.range "0" "9") (re.++ ((_ re.loop 0 3) (re.range "0" "9")) (re.++ (re.opt ((_ re.capture 4) (str.to.re " "))) (re.++ ((_ re.capture 5) (re.union (re.union (re.++ (str.to.re "0") (re.range "0" "9")) (re.++ (re.range "1" "8") (re.range "0" "9"))) (re.++ (str.to.re "9") (re.range "0" "6")))) (re.++ (re.opt ((_ re.capture 6) (str.to.re " "))) (re.++ (re.opt ((_ re.capture 7) (re.++ (re.range "0" "9") ((_ re.loop 0 2) (re.range "0" "9"))))) re.all)))))))))))) (re.++ (re.++ (re.*? re.allchar) (re.opt ((_ re.capture 8) (re.++ (str.to.re "G") (str.to.re "B"))))) (re.++ (re.opt ((_ re.capture 9) (str.to.re " "))) (re.++ (str.to.re "G") (re.++ (str.to.re "D") (re.++ (re.opt ((_ re.capture 10) (str.to.re " "))) (re.++ ((_ re.capture 11) (re.++ (re.range "0" "4") (re.++ (re.range "0" "9") (re.range "0" "9")))) re.all))))))) (re.++ (re.++ (re.++ (re.*? re.allchar) (re.opt ((_ re.capture 12) (re.++ (str.to.re "G") (str.to.re "B"))))) (re.++ (re.opt ((_ re.capture 13) (str.to.re " "))) (re.++ (str.to.re "H") (re.++ (str.to.re "A") (re.++ (re.opt ((_ re.capture 14) (str.to.re " "))) ((_ re.capture 15) (re.++ (re.range "5" "9") (re.++ (re.range "0" "9") (re.range "0" "9"))))))))) re.end-anchor))))	; match!==null
(assert (str.in.re ((_ str.extract 1) var0 (re.union (re.union (re.++ re.begin-anchor (re.++ (re.opt ((_ re.capture 1) (re.++ (str.to.re "G") (str.to.re "B")))) (re.++ (re.opt ((_ re.capture 2) (str.to.re " "))) (re.++ (re.range "0" "9") (re.++ ((_ re.loop 0 2) (re.range "0" "9")) (re.++ (re.opt ((_ re.capture 3) (str.to.re " "))) (re.++ (re.range "0" "9") (re.++ ((_ re.loop 0 3) (re.range "0" "9")) (re.++ (re.opt ((_ re.capture 4) (str.to.re " "))) (re.++ ((_ re.capture 5) (re.union (re.union (re.++ (str.to.re "0") (re.range "0" "9")) (re.++ (re.range "1" "8") (re.range "0" "9"))) (re.++ (str.to.re "9") (re.range "0" "6")))) (re.++ (re.opt ((_ re.capture 6) (str.to.re " "))) (re.++ (re.opt ((_ re.capture 7) (re.++ (re.range "0" "9") ((_ re.loop 0 2) (re.range "0" "9"))))) re.all)))))))))))) (re.++ (re.++ (re.*? re.allchar) (re.opt ((_ re.capture 8) (re.++ (str.to.re "G") (str.to.re "B"))))) (re.++ (re.opt ((_ re.capture 9) (str.to.re " "))) (re.++ (str.to.re "G") (re.++ (str.to.re "D") (re.++ (re.opt ((_ re.capture 10) (str.to.re " "))) (re.++ ((_ re.capture 11) (re.++ (re.range "0" "4") (re.++ (re.range "0" "9") (re.range "0" "9")))) re.all))))))) (re.++ (re.++ (re.++ (re.*? re.allchar) (re.opt ((_ re.capture 12) (re.++ (str.to.re "G") (str.to.re "B"))))) (re.++ (re.opt ((_ re.capture 13) (str.to.re " "))) (re.++ (str.to.re "H") (re.++ (str.to.re "A") (re.++ (re.opt ((_ re.capture 14) (str.to.re " "))) ((_ re.capture 15) (re.++ (re.range "5" "9") (re.++ (re.range "0" "9") (re.range "0" "9"))))))))) re.end-anchor))) (str.to.re "\x00")))
;match[1]==null
(check-sat)
(get-model)
(pop 1)
(push 1)
(assert (str.in.re var0 (re.* (re.range "\x01" "\xff"))))
(assert (not (str.in.re var0 (re.union (re.union (re.++ re.begin-anchor (re.++ (re.opt ((_ re.capture 1) (re.++ (str.to.re "G") (str.to.re "B")))) (re.++ (re.opt ((_ re.capture 2) (str.to.re " "))) (re.++ (re.range "0" "9") (re.++ ((_ re.loop 0 2) (re.range "0" "9")) (re.++ (re.opt ((_ re.capture 3) (str.to.re " "))) (re.++ (re.range "0" "9") (re.++ ((_ re.loop 0 3) (re.range "0" "9")) (re.++ (re.opt ((_ re.capture 4) (str.to.re " "))) (re.++ ((_ re.capture 5) (re.union (re.union (re.++ (str.to.re "0") (re.range "0" "9")) (re.++ (re.range "1" "8") (re.range "0" "9"))) (re.++ (str.to.re "9") (re.range "0" "6")))) (re.++ (re.opt ((_ re.capture 6) (str.to.re " "))) (re.++ (re.opt ((_ re.capture 7) (re.++ (re.range "0" "9") ((_ re.loop 0 2) (re.range "0" "9"))))) re.all)))))))))))) (re.++ (re.++ (re.*? re.allchar) (re.opt ((_ re.capture 8) (re.++ (str.to.re "G") (str.to.re "B"))))) (re.++ (re.opt ((_ re.capture 9) (str.to.re " "))) (re.++ (str.to.re "G") (re.++ (str.to.re "D") (re.++ (re.opt ((_ re.capture 10) (str.to.re " "))) (re.++ ((_ re.capture 11) (re.++ (re.range "0" "4") (re.++ (re.range "0" "9") (re.range "0" "9")))) re.all))))))) (re.++ (re.++ (re.++ (re.*? re.allchar) (re.opt ((_ re.capture 12) (re.++ (str.to.re "G") (str.to.re "B"))))) (re.++ (re.opt ((_ re.capture 13) (str.to.re " "))) (re.++ (str.to.re "H") (re.++ (str.to.re "A") (re.++ (re.opt ((_ re.capture 14) (str.to.re " "))) ((_ re.capture 15) (re.++ (re.range "5" "9") (re.++ (re.range "0" "9") (re.range "0" "9"))))))))) re.end-anchor)))))	; match == null
(check-sat)
(get-model)
(pop 1)
(exit)
